p cnf 210 1180
1 2 3 4 5 6 7 0
8 9 10 11 12 13 14 0
15 16 17 18 19 20 21 0
22 23 24 25 26 27 28 0
29 30 31 32 33 34 35 0
36 37 38 39 40 41 42 0
43 44 45 46 47 48 49 0
50 51 52 53 54 55 56 0
57 58 59 60 61 62 63 0
64 65 66 67 68 69 70 0
71 72 73 74 75 76 77 0
78 79 80 81 82 83 84 0
85 86 87 88 89 90 91 0
92 93 94 95 96 97 98 0
99 100 101 102 103 104 105 0
106 107 108 109 110 111 112 0
113 114 115 116 117 118 119 0
120 121 122 123 124 125 126 0
127 128 129 130 131 132 133 0
134 135 136 137 138 139 140 0
141 142 143 144 145 146 147 0
148 149 150 151 152 153 154 0
155 156 157 158 159 160 161 0
162 163 164 165 166 167 168 0
169 170 171 172 173 174 175 0
176 177 178 179 180 181 182 0
183 184 185 186 187 188 189 0
190 191 192 193 194 195 196 0
197 198 199 200 201 202 203 0
204 205 206 207 208 209 210 0
-1 -2 0
-1 -3 0
-1 -4 0
-1 -5 0
-1 -6 0
-1 -7 0
-2 -3 0
-2 -4 0
-2 -5 0
-2 -6 0
-2 -7 0
-3 -4 0
-3 -5 0
-3 -6 0
-3 -7 0
-4 -5 0
-4 -6 0
-4 -7 0
-5 -6 0
-5 -7 0
-6 -7 0
-8 -9 0
-8 -10 0
-8 -11 0
-8 -12 0
-8 -13 0
-8 -14 0
-9 -10 0
-9 -11 0
-9 -12 0
-9 -13 0
-9 -14 0
-10 -11 0
-10 -12 0
-10 -13 0
-10 -14 0
-11 -12 0
-11 -13 0
-11 -14 0
-12 -13 0
-12 -14 0
-13 -14 0
-15 -16 0
-15 -17 0
-15 -18 0
-15 -19 0
-15 -20 0
-15 -21 0
-16 -17 0
-16 -18 0
-16 -19 0
-16 -20 0
-16 -21 0
-17 -18 0
-17 -19 0
-17 -20 0
-17 -21 0
-18 -19 0
-18 -20 0
-18 -21 0
-19 -20 0
-19 -21 0
-20 -21 0
-22 -23 0
-22 -24 0
-22 -25 0
-22 -26 0
-22 -27 0
-22 -28 0
-23 -24 0
-23 -25 0
-23 -26 0
-23 -27 0
-23 -28 0
-24 -25 0
-24 -26 0
-24 -27 0
-24 -28 0
-25 -26 0
-25 -27 0
-25 -28 0
-26 -27 0
-26 -28 0
-27 -28 0
-29 -30 0
-29 -31 0
-29 -32 0
-29 -33 0
-29 -34 0
-29 -35 0
-30 -31 0
-30 -32 0
-30 -33 0
-30 -34 0
-30 -35 0
-31 -32 0
-31 -33 0
-31 -34 0
-31 -35 0
-32 -33 0
-32 -34 0
-32 -35 0
-33 -34 0
-33 -35 0
-34 -35 0
-36 -37 0
-36 -38 0
-36 -39 0
-36 -40 0
-36 -41 0
-36 -42 0
-37 -38 0
-37 -39 0
-37 -40 0
-37 -41 0
-37 -42 0
-38 -39 0
-38 -40 0
-38 -41 0
-38 -42 0
-39 -40 0
-39 -41 0
-39 -42 0
-40 -41 0
-40 -42 0
-41 -42 0
-43 -44 0
-43 -45 0
-43 -46 0
-43 -47 0
-43 -48 0
-43 -49 0
-44 -45 0
-44 -46 0
-44 -47 0
-44 -48 0
-44 -49 0
-45 -46 0
-45 -47 0
-45 -48 0
-45 -49 0
-46 -47 0
-46 -48 0
-46 -49 0
-47 -48 0
-47 -49 0
-48 -49 0
-50 -51 0
-50 -52 0
-50 -53 0
-50 -54 0
-50 -55 0
-50 -56 0
-51 -52 0
-51 -53 0
-51 -54 0
-51 -55 0
-51 -56 0
-52 -53 0
-52 -54 0
-52 -55 0
-52 -56 0
-53 -54 0
-53 -55 0
-53 -56 0
-54 -55 0
-54 -56 0
-55 -56 0
-57 -58 0
-57 -59 0
-57 -60 0
-57 -61 0
-57 -62 0
-57 -63 0
-58 -59 0
-58 -60 0
-58 -61 0
-58 -62 0
-58 -63 0
-59 -60 0
-59 -61 0
-59 -62 0
-59 -63 0
-60 -61 0
-60 -62 0
-60 -63 0
-61 -62 0
-61 -63 0
-62 -63 0
-64 -65 0
-64 -66 0
-64 -67 0
-64 -68 0
-64 -69 0
-64 -70 0
-65 -66 0
-65 -67 0
-65 -68 0
-65 -69 0
-65 -70 0
-66 -67 0
-66 -68 0
-66 -69 0
-66 -70 0
-67 -68 0
-67 -69 0
-67 -70 0
-68 -69 0
-68 -70 0
-69 -70 0
-71 -72 0
-71 -73 0
-71 -74 0
-71 -75 0
-71 -76 0
-71 -77 0
-72 -73 0
-72 -74 0
-72 -75 0
-72 -76 0
-72 -77 0
-73 -74 0
-73 -75 0
-73 -76 0
-73 -77 0
-74 -75 0
-74 -76 0
-74 -77 0
-75 -76 0
-75 -77 0
-76 -77 0
-78 -79 0
-78 -80 0
-78 -81 0
-78 -82 0
-78 -83 0
-78 -84 0
-79 -80 0
-79 -81 0
-79 -82 0
-79 -83 0
-79 -84 0
-80 -81 0
-80 -82 0
-80 -83 0
-80 -84 0
-81 -82 0
-81 -83 0
-81 -84 0
-82 -83 0
-82 -84 0
-83 -84 0
-85 -86 0
-85 -87 0
-85 -88 0
-85 -89 0
-85 -90 0
-85 -91 0
-86 -87 0
-86 -88 0
-86 -89 0
-86 -90 0
-86 -91 0
-87 -88 0
-87 -89 0
-87 -90 0
-87 -91 0
-88 -89 0
-88 -90 0
-88 -91 0
-89 -90 0
-89 -91 0
-90 -91 0
-92 -93 0
-92 -94 0
-92 -95 0
-92 -96 0
-92 -97 0
-92 -98 0
-93 -94 0
-93 -95 0
-93 -96 0
-93 -97 0
-93 -98 0
-94 -95 0
-94 -96 0
-94 -97 0
-94 -98 0
-95 -96 0
-95 -97 0
-95 -98 0
-96 -97 0
-96 -98 0
-97 -98 0
-99 -100 0
-99 -101 0
-99 -102 0
-99 -103 0
-99 -104 0
-99 -105 0
-100 -101 0
-100 -102 0
-100 -103 0
-100 -104 0
-100 -105 0
-101 -102 0
-101 -103 0
-101 -104 0
-101 -105 0
-102 -103 0
-102 -104 0
-102 -105 0
-103 -104 0
-103 -105 0
-104 -105 0
-106 -107 0
-106 -108 0
-106 -109 0
-106 -110 0
-106 -111 0
-106 -112 0
-107 -108 0
-107 -109 0
-107 -110 0
-107 -111 0
-107 -112 0
-108 -109 0
-108 -110 0
-108 -111 0
-108 -112 0
-109 -110 0
-109 -111 0
-109 -112 0
-110 -111 0
-110 -112 0
-111 -112 0
-113 -114 0
-113 -115 0
-113 -116 0
-113 -117 0
-113 -118 0
-113 -119 0
-114 -115 0
-114 -116 0
-114 -117 0
-114 -118 0
-114 -119 0
-115 -116 0
-115 -117 0
-115 -118 0
-115 -119 0
-116 -117 0
-116 -118 0
-116 -119 0
-117 -118 0
-117 -119 0
-118 -119 0
-120 -121 0
-120 -122 0
-120 -123 0
-120 -124 0
-120 -125 0
-120 -126 0
-121 -122 0
-121 -123 0
-121 -124 0
-121 -125 0
-121 -126 0
-122 -123 0
-122 -124 0
-122 -125 0
-122 -126 0
-123 -124 0
-123 -125 0
-123 -126 0
-124 -125 0
-124 -126 0
-125 -126 0
-127 -128 0
-127 -129 0
-127 -130 0
-127 -131 0
-127 -132 0
-127 -133 0
-128 -129 0
-128 -130 0
-128 -131 0
-128 -132 0
-128 -133 0
-129 -130 0
-129 -131 0
-129 -132 0
-129 -133 0
-130 -131 0
-130 -132 0
-130 -133 0
-131 -132 0
-131 -133 0
-132 -133 0
-134 -135 0
-134 -136 0
-134 -137 0
-134 -138 0
-134 -139 0
-134 -140 0
-135 -136 0
-135 -137 0
-135 -138 0
-135 -139 0
-135 -140 0
-136 -137 0
-136 -138 0
-136 -139 0
-136 -140 0
-137 -138 0
-137 -139 0
-137 -140 0
-138 -139 0
-138 -140 0
-139 -140 0
-141 -142 0
-141 -143 0
-141 -144 0
-141 -145 0
-141 -146 0
-141 -147 0
-142 -143 0
-142 -144 0
-142 -145 0
-142 -146 0
-142 -147 0
-143 -144 0
-143 -145 0
-143 -146 0
-143 -147 0
-144 -145 0
-144 -146 0
-144 -147 0
-145 -146 0
-145 -147 0
-146 -147 0
-148 -149 0
-148 -150 0
-148 -151 0
-148 -152 0
-148 -153 0
-148 -154 0
-149 -150 0
-149 -151 0
-149 -152 0
-149 -153 0
-149 -154 0
-150 -151 0
-150 -152 0
-150 -153 0
-150 -154 0
-151 -152 0
-151 -153 0
-151 -154 0
-152 -153 0
-152 -154 0
-153 -154 0
-155 -156 0
-155 -157 0
-155 -158 0
-155 -159 0
-155 -160 0
-155 -161 0
-156 -157 0
-156 -158 0
-156 -159 0
-156 -160 0
-156 -161 0
-157 -158 0
-157 -159 0
-157 -160 0
-157 -161 0
-158 -159 0
-158 -160 0
-158 -161 0
-159 -160 0
-159 -161 0
-160 -161 0
-162 -163 0
-162 -164 0
-162 -165 0
-162 -166 0
-162 -167 0
-162 -168 0
-163 -164 0
-163 -165 0
-163 -166 0
-163 -167 0
-163 -168 0
-164 -165 0
-164 -166 0
-164 -167 0
-164 -168 0
-165 -166 0
-165 -167 0
-165 -168 0
-166 -167 0
-166 -168 0
-167 -168 0
-169 -170 0
-169 -171 0
-169 -172 0
-169 -173 0
-169 -174 0
-169 -175 0
-170 -171 0
-170 -172 0
-170 -173 0
-170 -174 0
-170 -175 0
-171 -172 0
-171 -173 0
-171 -174 0
-171 -175 0
-172 -173 0
-172 -174 0
-172 -175 0
-173 -174 0
-173 -175 0
-174 -175 0
-176 -177 0
-176 -178 0
-176 -179 0
-176 -180 0
-176 -181 0
-176 -182 0
-177 -178 0
-177 -179 0
-177 -180 0
-177 -181 0
-177 -182 0
-178 -179 0
-178 -180 0
-178 -181 0
-178 -182 0
-179 -180 0
-179 -181 0
-179 -182 0
-180 -181 0
-180 -182 0
-181 -182 0
-183 -184 0
-183 -185 0
-183 -186 0
-183 -187 0
-183 -188 0
-183 -189 0
-184 -185 0
-184 -186 0
-184 -187 0
-184 -188 0
-184 -189 0
-185 -186 0
-185 -187 0
-185 -188 0
-185 -189 0
-186 -187 0
-186 -188 0
-186 -189 0
-187 -188 0
-187 -189 0
-188 -189 0
-190 -191 0
-190 -192 0
-190 -193 0
-190 -194 0
-190 -195 0
-190 -196 0
-191 -192 0
-191 -193 0
-191 -194 0
-191 -195 0
-191 -196 0
-192 -193 0
-192 -194 0
-192 -195 0
-192 -196 0
-193 -194 0
-193 -195 0
-193 -196 0
-194 -195 0
-194 -196 0
-195 -196 0
-197 -198 0
-197 -199 0
-197 -200 0
-197 -201 0
-197 -202 0
-197 -203 0
-198 -199 0
-198 -200 0
-198 -201 0
-198 -202 0
-198 -203 0
-199 -200 0
-199 -201 0
-199 -202 0
-199 -203 0
-200 -201 0
-200 -202 0
-200 -203 0
-201 -202 0
-201 -203 0
-202 -203 0
-204 -205 0
-204 -206 0
-204 -207 0
-204 -208 0
-204 -209 0
-204 -210 0
-205 -206 0
-205 -207 0
-205 -208 0
-205 -209 0
-205 -210 0
-206 -207 0
-206 -208 0
-206 -209 0
-206 -210 0
-207 -208 0
-207 -209 0
-207 -210 0
-208 -209 0
-208 -210 0
-209 -210 0
-7 -33 0
-5 -31 0
-4 -29 0
-3 -34 0
-5 -63 0
-4 -62 0
-4 -63 0
-7 -58 0
-5 -67 0
-1 -64 0
-3 -69 0
-3 -65 0
-4 -71 0
-7 -75 0
-2 -77 0
-1 -75 0
-7 -110 0
-6 -111 0
-2 -106 0
-6 -109 0
-6 -151 0
-7 -152 0
-6 -148 0
-5 -152 0
-2 -181 0
-3 -178 0
-6 -176 0
-5 -177 0
-1 -206 0
-1 -205 0
-3 -205 0
-7 -210 0
-11 -63 0
-12 -58 0
-12 -60 0
-13 -61 0
-14 -81 0
-11 -83 0
-11 -80 0
-8 -83 0
-9 -142 0
-12 -145 0
-11 -146 0
-13 -145 0
-8 -152 0
-10 -151 0
-12 -152 0
-8 -151 0
-11 -164 0
-14 -167 0
-13 -163 0
-9 -165 0
-13 -196 0
-14 -191 0
-9 -196 0
-11 -196 0
-12 -206 0
-10 -208 0
-12 -209 0
-14 -205 0
-20 -24 0
-18 -26 0
-16 -26 0
-18 -27 0
-15 -43 0
-17 -46 0
-16 -46 0
-19 -48 0
-17 -51 0
-20 -56 0
-18 -50 0
-15 -50 0
-15 -58 0
-17 -60 0
-15 -62 0
-15 -61 0
-15 -71 0
-16 -72 0
-18 -73 0
-17 -73 0
-18 -80 0
-16 -80 0
-19 -83 0
-17 -83 0
-15 -101 0
-17 -100 0
-21 -102 0
-16 -99 0
-21 -118 0
-15 -114 0
-21 -117 0
-21 -113 0
-15 -122 0
-19 -125 0
-18 -123 0
-18 -126 0
-17 -147 0
-20 -145 0
-19 -145 0
-19 -142 0
-16 -148 0
-17 -148 0
-19 -148 0
-18 -149 0
-18 -157 0
-17 -158 0
-15 -160 0
-20 -156 0
-15 -181 0
-16 -177 0
-20 -176 0
-16 -180 0
-17 -202 0
-19 -199 0
-21 -201 0
-17 -201 0
-20 -208 0
-18 -204 0
-19 -205 0
-18 -208 0
-25 -31 0
-24 -31 0
-24 -29 0
-28 -29 0
-26 -44 0
-27 -48 0
-28 -45 0
-24 -45 0
-22 -60 0
-25 -59 0
-22 -61 0
-28 -59 0
-25 -65 0
-25 -70 0
-27 -69 0
-28 -64 0
-25 -101 0
-26 -99 0
-28 -101 0
-22 -103 0
-26 -108 0
-22 -109 0
-22 -106 0
-25 -106 0
-25 -118 0
-27 -119 0
-28 -119 0
-23 -115 0
-22 -122 0
-23 -121 0
-23 -123 0
-28 -122 0
-26 -153 0
-22 -152 0
-22 -153 0
-22 -154 0
-24 -170 0
-27 -171 0
-22 -170 0
-22 -174 0
-27 -179 0
-28 -182 0
-22 -179 0
-26 -177 0
-23 -191 0
-27 -194 0
-23 -190 0
-27 -192 0
-27 -204 0
-27 -207 0
-27 -206 0
-23 -208 0
-34 -38 0
-33 -41 0
-34 -36 0
-32 -39 0
-31 -47 0
-29 -43 0
-35 -48 0
-30 -45 0
-34 -56 0
-34 -53 0
-29 -55 0
-32 -54 0
-35 -81 0
-33 -82 0
-35 -79 0
-35 -84 0
-34 -128 0
-29 -133 0
-35 -130 0
-32 -130 0
-29 -152 0
-29 -154 0
-33 -152 0
-29 -149 0
-31 -191 0
-30 -195 0
-35 -192 0
-32 -194 0
-39 -57 0
-39 -62 0
-42 -57 0
-39 -63 0
-38 -76 0
-36 -77 0
-36 -74 0
-37 -76 0
-40 -97 0
-36 -96 0
-36 -93 0
-38 -93 0
-42 -112 0
-41 -111 0
-36 -111 0
-40 -111 0
-40 -140 0
-41 -139 0
-42 -138 0
-36 -138 0
-42 -146 0
-37 -146 0
-39 -143 0
-36 -145 0
-42 -155 0
-41 -155 0
-41 -156 0
-37 -161 0
-44 -78 0
-46 -84 0
-48 -82 0
-47 -83 0
-46 -94 0
-49 -92 0
-43 -96 0
-45 -94 0
-47 -112 0
-49 -106 0
-49 -107 0
-43 -106 0
-44 -118 0
-44 -117 0
-45 -115 0
-48 -115 0
-46 -164 0
-49 -168 0
-49 -167 0
-49 -162 0
-43 -176 0
-44 -177 0
-47 -181 0
-49 -178 0
-46 -203 0
-46 -198 0
-45 -203 0
-49 -198 0
-44 -208 0
-48 -210 0
-48 -209 0
-46 -204 0
-51 -67 0
-51 -70 0
-50 -67 0
-51 -66 0
-55 -74 0
-52 -71 0
-54 -74 0
-55 -72 0
-53 -187 0
-54 -185 0
-56 -189 0
-52 -189 0
-60 -72 0
-58 -72 0
-62 -72 0
-63 -74 0
-62 -94 0
-61 -96 0
-60 -98 0
-59 -95 0
-59 -105 0
-60 -100 0
-59 -101 0
-62 -102 0
-58 -109 0
-62 -110 0
-57 -109 0
-57 -107 0
-63 -127 0
-59 -133 0
-61 -127 0
-63 -129 0
-61 -162 0
-63 -163 0
-59 -165 0
-59 -167 0
-59 -209 0
-60 -204 0
-60 -210 0
-59 -208 0
-68 -182 0
-69 -180 0
-64 -180 0
-67 -178 0
-73 -129 0
-73 -133 0
-74 -131 0
-71 -133 0
-73 -191 0
-77 -196 0
-75 -194 0
-76 -196 0
-77 -199 0
-71 -197 0
-76 -200 0
-74 -197 0
-75 -206 0
-72 -209 0
-71 -204 0
-73 -210 0
-78 -86 0
-79 -85 0
-81 -86 0
-84 -85 0
-81 -100 0
-79 -105 0
-82 -101 0
-84 -104 0
-78 -109 0
-83 -107 0
-82 -108 0
-83 -111 0
-81 -123 0
-82 -126 0
-83 -126 0
-80 -121 0
-81 -129 0
-83 -128 0
-81 -130 0
-78 -130 0
-83 -143 0
-84 -142 0
-80 -145 0
-82 -145 0
-84 -189 0
-82 -185 0
-79 -189 0
-81 -184 0
-91 -134 0
-90 -138 0
-91 -136 0
-89 -139 0
-88 -183 0
-85 -183 0
-86 -189 0
-91 -188 0
-97 -108 0
-94 -108 0
-98 -110 0
-95 -107 0
-97 -116 0
-92 -118 0
-92 -119 0
-98 -116 0
-97 -140 0
-96 -134 0
-97 -137 0
-96 -139 0
-92 -153 0
-92 -150 0
-97 -154 0
-97 -153 0
-94 -184 0
-92 -186 0
-92 -184 0
-93 -185 0
-97 -190 0
-98 -196 0
-97 -193 0
-93 -196 0
-94 -205 0
-96 -204 0
-96 -209 0
-98 -210 0
-99 -141 0
-103 -145 0
-102 -145 0
-102 -143 0
-102 -184 0
-99 -184 0
-104 -186 0
-102 -187 0
-100 -193 0
-99 -193 0
-102 -196 0
-104 -195 0
-112 -125 0
-109 -124 0
-111 -124 0
-111 -123 0
-112 -133 0
-106 -131 0
-106 -133 0
-108 -130 0
-106 -143 0
-111 -146 0
-109 -145 0
-110 -144 0
-111 -157 0
-108 -156 0
-108 -159 0
-110 -160 0
-110 -174 0
-110 -169 0
-111 -174 0
-109 -173 0
-111 -182 0
-106 -182 0
-110 -181 0
-111 -177 0
-116 -123 0
-117 -124 0
-118 -125 0
-118 -121 0
-116 -140 0
-117 -134 0
-113 -137 0
-119 -134 0
-116 -184 0
-113 -187 0
-115 -189 0
-119 -183 0
-115 -191 0
-119 -192 0
-118 -194 0
-119 -195 0
-123 -137 0
-120 -138 0
-126 -138 0
-121 -136 0
-124 -141 0
-122 -144 0
-125 -141 0
-123 -142 0
-125 -151 0
-126 -150 0
-120 -149 0
-126 -152 0
-126 -180 0
-126 -176 0
-120 -176 0
-124 -179 0
-120 -210 0
-123 -209 0
-121 -204 0
-121 -207 0
-128 -137 0
-129 -134 0
-132 -140 0
-130 -136 0
-130 -158 0
-128 -157 0
-131 -158 0
-127 -158 0
-134 -141 0
-137 -147 0
-135 -145 0
-137 -141 0
-140 -149 0
-138 -152 0
-139 -154 0
-139 -149 0
-138 -156 0
-140 -161 0
-137 -161 0
-137 -159 0
-135 -200 0
-138 -201 0
-136 -202 0
-134 -198 0
-145 -154 0
-145 -152 0
-144 -149 0
-147 -151 0
-145 -181 0
-144 -182 0
-141 -179 0
-146 -179 0
-147 -207 0
-147 -209 0
-146 -209 0
-143 -209 0
-150 -200 0
-149 -202 0
-153 -200 0
-148 -200 0
-149 -209 0
-152 -208 0
-150 -208 0
-150 -210 0
-160 -209 0
-155 -209 0
-160 -205 0
-156 -210 0
-168 -172 0
-166 -169 0
-164 -173 0
-167 -173 0
-166 -207 0
-164 -207 0
-165 -204 0
-168 -206 0
-180 -191 0
-181 -196 0
-176 -193 0
-179 -196 0
-176 -201 0
-182 -202 0
-176 -200 0
-180 -202 0
